nodes = 233;
edges = 430;
starts = [1, 2, 2, 3, 3, 4, 4, 5, 6, 6, 7, 7, 7, 8, 8, 9, 9, 10, 10, 10, 11, 11, 12, 12, 12, 12, 13, 14, 15, 15, 16, 17, 17, 17, 18, 19, 20, 21, 21, 22, 22, 22, 23, 23, 24, 25, 25, 26, 27, 27, 27, 28, 28, 29, 30, 30, 31, 31, 32, 32, 32, 33, 34, 34, 35, 36, 36, 36, 37, 37, 37, 38, 39, 40, 41, 42, 42, 43, 43, 44, 45, 45, 45, 46, 46, 47, 48, 48, 49, 49, 50, 51, 52, 53, 53, 54, 55, 56, 56, 57, 57, 58, 58, 59, 60, 61, 61, 61, 62, 63, 63, 63, 64, 64, 65, 66, 66, 67, 67, 68, 68, 69, 69, 70, 71, 71, 72, 72, 73, 73, 74, 75, 76, 76, 77, 77, 78, 78, 79, 80, 80, 81, 81, 82, 82, 83, 83, 84, 85, 85, 86, 87, 88, 88, 88, 89, 90, 90, 91, 91, 91, 92, 92, 93, 93, 94, 95, 95, 96, 96, 97, 97, 98, 98, 98, 99, 99, 100, 100, 101, 102, 102, 103, 104, 104, 105, 105, 106, 107, 107, 108, 108, 109, 110, 110, 111, 112, 112, 113, 114, 114, 115, 116, 116, 116, 116, 117, 117, 118, 118, 119, 119, 120, 120, 120, 121, 121, 122, 123, 123, 124, 124, 125, 125, 126, 126, 127, 127, 128, 129, 129, 130, 130, 130, 131, 131, 132, 132, 133, 133, 134, 134, 135, 136, 137, 137, 138, 139, 139, 140, 140, 141, 142, 142, 143, 143, 144, 144, 145, 146, 147, 147, 147, 148, 149, 149, 150, 151, 151, 152, 153, 153, 154, 154, 154, 155, 156, 157, 157, 158, 158, 159, 159, 160, 160, 161, 161, 161, 162, 163, 163, 163, 163, 164, 164, 164, 165, 165, 166, 166, 166, 167, 167, 168, 169, 169, 170, 170, 171, 172, 172, 173, 173, 174, 174, 175, 176, 176, 177, 177, 177, 178, 179, 180, 180, 180, 180, 181, 181, 181, 182, 182, 182, 183, 183, 184, 184, 185, 186, 186, 187, 188, 189, 189, 190, 190, 190, 191, 191, 192, 192, 193, 193, 193, 194, 195, 195, 196, 196, 196, 197, 197, 197, 198, 199, 200, 200, 201, 201, 201, 202, 203, 203, 204, 205, 205, 206, 207, 207, 208, 208, 209, 209, 210, 211, 211, 212, 212, 213, 213, 213, 214, 215, 215, 216, 216, 217, 217, 218, 219, 220, 220, 221, 221, 222, 222, 222, 223, 223, 224, 224, 224, 225, 226, 226, 226, 227, 227, 228, 229, 229, 230, 230, 231, 232, 232, 232, 233, 233, 233];
ends = [149, 27, 158, 33, 112, 159, 181, 143, 5, 225, 40, 163, 170, 32, 207, 26, 148, 77, 121, 227, 199, 224, 93, 95, 149, 197, 219, 66, 30, 34, 126, 21, 120, 201, 220, 150, 181, 120, 159, 36, 138, 152, 144, 179, 26, 126, 227, 9, 2, 165, 198, 165, 169, 129, 32, 188, 167, 218, 30, 37, 188, 3, 15, 57, 209, 22, 191, 215, 32, 46, 187, 205, 221, 7, 222, 36, 222, 42, 221, 233, 94, 122, 203, 37, 38, 72, 73, 115, 56, 131, 106, 160, 54, 52, 74, 59, 131, 15, 57, 34, 55, 53, 54, 65, 17, 63, 173, 216, 146, 61, 91, 233, 58, 59, 70, 14, 232, 6, 165, 64, 65, 35, 204, 115, 107, 166, 123, 213, 68, 70, 75, 52, 48, 81, 10, 189, 210, 217, 47, 164, 192, 48, 117, 118, 132, 82, 105, 33, 47, 113, 114, 163, 16, 142, 226, 174, 157, 161, 63, 101, 216, 1, 95, 12, 116, 79, 145, 206, 173, 174, 104, 184, 44, 136, 194, 86, 98, 37, 38, 91, 116, 164, 195, 176, 193, 82, 130, 121, 86, 98, 85, 113, 166, 126, 162, 102, 84, 180, 135, 71, 130, 76, 93, 102, 125, 190, 81, 83, 83, 117, 45, 94, 17, 60, 232, 10, 196, 45, 13, 85, 84, 180, 102, 145, 25, 110, 29, 78, 50, 44, 136, 105, 114, 214, 118, 132, 4, 49, 168, 193, 160, 224, 119, 99, 124, 182, 22, 13, 123, 231, 232, 202, 88, 161, 67, 169, 23, 186, 171, 162, 155, 186, 201, 200, 12, 196, 228, 28, 226, 22, 109, 166, 19, 175, 183, 147, 201, 90, 211, 198, 226, 21, 181, 211, 230, 62, 90, 142, 142, 7, 87, 170, 213, 80, 102, 151, 27, 67, 71, 109, 153, 31, 220, 133, 80, 143, 7, 163, 92, 137, 182, 61, 96, 89, 173, 154, 180, 193, 92, 178, 189, 177, 23, 172, 176, 182, 183, 4, 20, 49, 124, 137, 180, 154, 228, 97, 104, 158, 144, 147, 8, 108, 77, 177, 111, 116, 208, 36, 222, 213, 223, 69, 104, 133, 98, 103, 203, 106, 121, 149, 93, 128, 208, 28, 11, 51, 202, 17, 147, 156, 229, 45, 195, 35, 97, 204, 95, 34, 55, 197, 212, 46, 187, 191, 141, 160, 111, 208, 163, 164, 192, 130, 210, 217, 61, 91, 167, 218, 127, 100, 18, 167, 39, 43, 41, 42, 221, 139, 219, 11, 134, 230, 5, 88, 157, 158, 10, 25, 172, 24, 148, 185, 224, 140, 66, 120, 140, 29, 63, 78];
weights = [34, 109, 167, 6, 187, 68, 6, 51, 141, 78, 72, 64, 194, 26, 92, 15, 128, 47, 96, 63, 68, 13, 118, 80, 49, 79, 13, 41, 42, 16, 278, 55, 9, 77, 7, 30, 6, 55, 174, 15, 223, 78, 3, 32, 65, 71, 62, 15, 109, 84, 145, 140, 43, 2, 43, 43, 11, 437, 43, 76, 17, 6, 16, 120, 74, 15, 11, 95, 76, 42, 32, 70, 6, 72, 6, 118, 11, 115, 11, 2, 140, 63, 37, 42, 19, 41, 3, 57, 18, 15, 55, 61, 5, 56, 7, 5, 15, 152, 17, 120, 21, 6, 57, 5, 97, 124, 93, 13, 16, 124, 113, 44, 6, 57, 5, 41, 45, 49, 162, 6, 58, 128, 95, 5, 17, 51, 29, 186, 6, 58, 60, 11, 11, 19, 47, 94, 63, 11, 83, 10, 138, 14, 41, 9, 78, 9, 48, 186, 21, 28, 12, 145, 61, 32, 214, 6, 43, 83, 113, 67, 24, 50, 50, 118, 27, 228, 66, 46, 13, 228, 81, 190, 144, 18, 20, 357, 17, 23, 76, 67, 60, 42, 34, 9, 7, 50, 127, 58, 5, 362, 28, 53, 17, 57, 253, 130, 10, 84, 59, 18, 86, 55, 27, 60, 119, 61, 41, 31, 7, 28, 145, 33, 9, 103, 22, 96, 113, 63, 10, 86, 79, 15, 163, 129, 71, 57, 161, 7, 101, 15, 142, 127, 86, 96, 77, 11, 83, 11, 91, 158, 65, 79, 276, 2, 105, 104, 223, 36, 35, 66, 68, 66, 32, 92, 137, 122, 3, 27, 48, 52, 72, 33, 32, 6, 49, 14, 18, 15, 194, 78, 165, 24, 91, 124, 20, 72, 44, 43, 91, 116, 14, 174, 68, 15, 110, 126, 83, 92, 69, 64, 145, 117, 197, 10, 42, 191, 84, 162, 51, 17, 24, 11, 35, 91, 154, 122, 194, 117, 65, 105, 6, 93, 13, 6, 240, 124, 120, 10, 153, 15, 32, 15, 32, 14, 120, 13, 162, 6, 6, 76, 6, 104, 13, 20, 67, 190, 81, 114, 27, 33, 21, 12, 94, 32, 47, 61, 140, 11, 118, 10, 84, 27, 7, 158, 20, 34, 11, 154, 113, 14, 124, 48, 60, 78, 68, 69, 16, 77, 32, 44, 6, 37, 11, 26, 77, 37, 46, 20, 157, 60, 60, 26, 76, 88, 63, 15, 143, 60, 197, 140, 10, 96, 12, 56, 13, 24, 429, 7, 10, 15, 7, 35, 6, 11, 6, 11, 115, 47, 85, 13, 79, 97, 215, 214, 241, 14, 63, 62, 83, 62, 15, 106, 97, 66, 45, 22, 68, 16, 44, 162];
start = 158;
end= 174;
p = [1, 0, 0, 0, 0, 0, 0, 0, 0, 0, 0, 0, 0, 0, 0, 1, 0, 0, 0, 0, 1, 0, 1, 0, 0, 0, 0, 0, 0, 0, 0, 0, 0, 0, 0, 0, 0, 0, 0, 0, 1, 0, 1, 0, 1, 0, 0, 0, 0, 0, 0, 0, 0, 0, 0, 1, 0, 0, 0, 0, 0, 1, 0, 0, 0, 0, 0, 0, 0, 1, 0, 0, 0, 0, 0, 0, 1, 0, 0, 0, 0, 0, 0, 0, 0, 0, 0, 0, 1, 0, 0, 0, 1, 0, 0, 1, 0, 0, 1, 0, 0, 0, 1, 1, 1, 0, 0, 0, 1, 0, 0, 0, 0, 0, 0, 1, 0, 0, 0, 0, 0, 0, 0, 0, 0, 1, 0, 0, 0, 0, 0, 0, 0, 0, 1, 0, 0, 0, 0, 0, 0, 0, 1, 0, 0, 0, 0, 0, 0, 0, 0, 0, 0, 0, 0, 0, 0, 0, 0, 0, 0, 0, 0, 0, 0, 0, 0, 0, 1, 0, 0, 0, 0, 0, 0, 0, 0, 0, 0, 0, 0, 0, 0, 0, 0, 0, 0, 0, 0, 0, 0, 0, 0, 0, 0, 1, 0, 0, 0, 0, 0, 0, 0, 0, 0, 1, 0, 0, 0, 0, 0, 0, 0, 0, 0, 1, 0, 0, 0, 0, 0, 0, 0, 0, 0, 0, 0, 0, 0, 0, 0, 0, 0];
